db/data/27832256352232821476232911003794775045.z3.out
-------------------
2500.139348973
